423636.0
4115
0 1 2 3 5 6 7 8 10 11 12 14 15 16 17 18 20 21 22 23 24 28 29 30 31 32 33 34 35 36 37 38 39 40 41 42 43 45 46 47 48 49 50 52 54 55 57 58 59 60 61 62 63 64 67 68 69 71 72 74 75 76 78 79 80 81 82 83 84 85 87 88 89 90 91 92 94 95 97 99 101 102 105 106 107 108 109 110 111 114 115 117 118 120 121 122 123 125 126 127 128 130 131 132 133 134 135 137 139 140 141 142 143 144 145 146 147 148 149 150 152 153 154 155 156 157 158 159 160 161 163 164 165 166 168 171 173 175 177 178 179 180 181 183 184 185 187 188 189 190 191 192 193 194 195 197 198 199 